unsat
(define-fun f ((x (_ BitVec 64))) (_ BitVec 64) (im (bvand #b0000000000000000000000000000000000000000000000000000000000000001 x) (shesh (bvnot x)) #b0000000000000000000000000000000000000000000000000000000000000000))
0.02user 0.00system 0:00.02elapsed 100%CPU (0avgtext+0avgdata 25764maxresident)k
8inputs+8outputs (0major+1115minor)pagefaults 0swaps
